Traveling Salesman Problem/TSP_generados/Aleatorio1621103491_15.tsp
NAME: Aleatorio1621103491_15.tsp
COMMENT: Randomly generated scenario
TYPE: TSP
DIMENSION: 15
EDGE_WEIGHT_TYPE: ATT
NODE_COORD_SECTION
1 0.84 5.55
2 25.52 24.51
3 39.46 1.99
4 38.09 19.99
5 42.13 8.56
6 13.49 43.89
7 18.49 17.51
8 12.93 2.11
9 3.64 44.07
10 37.56 37.71
11 41.47 18.34
12 47.15 35.0
13 21.99 6.5
14 28.23 42.5
15 48.92 36.8
