Traveling Salesman Problem/TSP_generados/Aleatorio1621103491_15.opt.tour
NAME: Aleatorio1621103491_15.opt.tour
COMMENT: Optimal solution for Aleatorio1621103491_15 (188.5231126240358)
TYPE: TOUR
DIMENSION: 15
TOUR_SECTION
1 7 2 9 6 14 10 15 12 4 11 5 3 13 8
-1
EOF
